Minimize 
     x_0 + x_1 + x_2 + x_3 + x_4 + x_5 + x_6 + x_7 + x_8 + x_9
Subject To 
    ctr_0: x_0 y_0_0 + x_0 y_0_1 + x_0 y_0_2 + x_0 y_0_3 + x_0 y_0_4 + x_0 y_0_5 + x_0 y_0_6 + x_0 y_0_7 + x_0 y_0_8 + x_0 y_0_9 + x_1 y_1_0 + x_1 y_1_1 + x_1 y_1_2 + x_1 y_1_3 + x_1 y_1_4 + x_1 y_1_5 + x_1 y_1_6 + x_1 y_1_7 + x_1 y_1_8 + x_1 y_1_9 + x_2 y_2_0 + x_2 y_2_1 + x_2 y_2_2 + x_2 y_2_3 + x_2 y_2_4 + x_2 y_2_5 + x_2 y_2_6 + x_2 y_2_7 + x_2 y_2_8 + x_2 y_2_9 + x_3 y_3_0 + x_3 y_3_1 + x_3 y_3_2 + x_3 y_3_3 + x_3 y_3_4 + x_3 y_3_5 + x_3 y_3_6 + x_3 y_3_7 + x_3 y_3_8 + x_3 y_3_9 + x_4 y_4_0 + x_4 y_4_1 + x_4 y_4_2 + x_4 y_4_3 + x_4 y_4_4 + x_4 y_4_5 + x_4 y_4_6 + x_4 y_4_7 + x_4 y_4_8 + x_4 y_4_9 + x_5 y_5_0 + x_5 y_5_1 + x_5 y_5_2 + x_5 y_5_3 + x_5 y_5_4 + x_5 y_5_5 + x_5 y_5_6 + x_5 y_5_7 + x_5 y_5_8 + x_5 y_5_9 + x_6 y_6_0 + x_6 y_6_1 + x_6 y_6_2 + x_6 y_6_3 + x_6 y_6_4 + x_6 y_6_5 + x_6 y_6_6 + x_6 y_6_7 + x_6 y_6_8 + x_6 y_6_9 + x_7 y_7_0 + x_7 y_7_1 + x_7 y_7_2 + x_7 y_7_3 + x_7 y_7_4 + x_7 y_7_5 + x_7 y_7_6 + x_7 y_7_7 + x_7 y_7_8 + x_7 y_7_9 + x_8 y_8_0 + x_8 y_8_1 + x_8 y_8_2 + x_8 y_8_3 + x_8 y_8_4 + x_8 y_8_5 + x_8 y_8_6 + x_8 y_8_7 + x_8 y_8_8 + x_8 y_8_9 + x_9 y_9_0 + x_9 y_9_1 + x_9 y_9_2 + x_9 y_9_3 + x_9 y_9_4 + x_9 y_9_5 + x_9 y_9_6 + x_9 y_9_7 + x_9 y_9_8 + x_9 y_9_9 = 10
    ctr_1: 29y_0_0 + 29y_0_1 + 29y_0_2 + 29y_0_3 + 29y_0_4 + 15y_0_5 + 15y_0_6 + 15y_0_7 + 5y_0_8 + 58y_0_9 <= 100
    ctr_2: 29y_1_0 + 29y_1_1 + 29y_1_2 + 29y_1_3 + 29y_1_4 + 15y_1_5 + 15y_1_6 + 15y_1_7 + 5y_1_8 + 58y_1_9 <= 100
    ctr_3: 29y_2_0 + 29y_2_1 + 29y_2_2 + 29y_2_3 + 29y_2_4 + 15y_2_5 + 15y_2_6 + 15y_2_7 + 5y_2_8 + 58y_2_9 <= 100
    ctr_4: 29y_3_0 + 29y_3_1 + 29y_3_2 + 29y_3_3 + 29y_3_4 + 15y_3_5 + 15y_3_6 + 15y_3_7 + 5y_3_8 + 58y_3_9 <= 100
    ctr_5: 29y_4_0 + 29y_4_1 + 29y_4_2 + 29y_4_3 + 29y_4_4 + 15y_4_5 + 15y_4_6 + 15y_4_7 + 5y_4_8 + 58y_4_9 <= 100
    ctr_6: 29y_5_0 + 29y_5_1 + 29y_5_2 + 29y_5_3 + 29y_5_4 + 15y_5_5 + 15y_5_6 + 15y_5_7 + 5y_5_8 + 58y_5_9 <= 100
    ctr_7: 29y_6_0 + 29y_6_1 + 29y_6_2 + 29y_6_3 + 29y_6_4 + 15y_6_5 + 15y_6_6 + 15y_6_7 + 5y_6_8 + 58y_6_9 <= 100
    ctr_8: 29y_7_0 + 29y_7_1 + 29y_7_2 + 29y_7_3 + 29y_7_4 + 15y_7_5 + 15y_7_6 + 15y_7_7 + 5y_7_8 + 58y_7_9 <= 100
    ctr_9: 29y_8_0 + 29y_8_1 + 29y_8_2 + 29y_8_3 + 29y_8_4 + 15y_8_5 + 15y_8_6 + 15y_8_7 + 5y_8_8 + 58y_8_9 <= 100
    ctr_10: 29y_9_0 + 29y_9_1 + 29y_9_2 + 29y_9_3 + 29y_9_4 + 15y_9_5 + 15y_9_6 + 15y_9_7 + 5y_9_8 + 58y_9_9 <= 100
Binary 
     x_0
     x_1
     x_2
     x_3
     x_4
     x_5
     x_6
     x_7
     x_8
     x_9
     y_0_0
     y_0_1
     y_0_2
     y_0_3
     y_0_4
     y_0_5
     y_0_6
     y_0_7
     y_0_8
     y_0_9
     y_1_0
     y_1_1
     y_1_2
     y_1_3
     y_1_4
     y_1_5
     y_1_6
     y_1_7
     y_1_8
     y_1_9
     y_2_0
     y_2_1
     y_2_2
     y_2_3
     y_2_4
     y_2_5
     y_2_6
     y_2_7
     y_2_8
     y_2_9
     y_3_0
     y_3_1
     y_3_2
     y_3_3
     y_3_4
     y_3_5
     y_3_6
     y_3_7
     y_3_8
     y_3_9
     y_4_0
     y_4_1
     y_4_2
     y_4_3
     y_4_4
     y_4_5
     y_4_6
     y_4_7
     y_4_8
     y_4_9
     y_5_0
     y_5_1
     y_5_2
     y_5_3
     y_5_4
     y_5_5
     y_5_6
     y_5_7
     y_5_8
     y_5_9
     y_6_0
     y_6_1
     y_6_2
     y_6_3
     y_6_4
     y_6_5
     y_6_6
     y_6_7
     y_6_8
     y_6_9
     y_7_0
     y_7_1
     y_7_2
     y_7_3
     y_7_4
     y_7_5
     y_7_6
     y_7_7
     y_7_8
     y_7_9
     y_8_0
     y_8_1
     y_8_2
     y_8_3
     y_8_4
     y_8_5
     y_8_6
     y_8_7
     y_8_8
     y_8_9
     y_9_0
     y_9_1
     y_9_2
     y_9_3
     y_9_4
     y_9_5
     y_9_6
     y_9_7
     y_9_8
     y_9_9
End